letting n =  10
letting blocks =  [[1, 1], [1, 8], [3, 7], [3, 8], [3, 9], [4, 3], [4, 6], [4, 7], [4, 8], [4, 9], [5, 6], [6, 2], [6, 8], [6, 10], [7, 1], [7, 7], [8, 7], [8, 8], [9, 3], [9, 6], [9, 9], [9, 10], [10, 2], [10, 8]]
